Pd Sn Pd 
 1.0000000000000000
    11.1978008624074477   -0.0000000000000144   -0.0000000000000000
    -0.0000000000000004   15.7527534012886914    0.0000000000000000
    -0.0000000000000000    0.0000000000000000   11.2029967083494171
  18   1   7
Cartesian
  4.1991753234027929  5.2072825254832562  3.9003745885436794
  2.7994502156018619  3.2381883503221687  5.3007491770873507
  4.1991753234027929  5.2072825254832562  6.7011237656310225
  2.7994502156018619  3.2381883503221687  8.1014983541746997
  4.1991753234027929  9.1454708758054295  3.9003745885436794
  2.7994502156018619  7.1763767006443446  5.3007491770873507
  4.1991753234027929  9.1454708758054295  6.7011237656310225
  2.7994502156018619 11.1145650509665170  5.3007491770873507
  2.7994502156018619  7.1763767006443446  8.1014983541746997
  2.7994502156018619 11.1145650509665170  8.1014983541746997
  6.9986255390046548  5.2072825254832527  3.9003745885436794
  5.5989004312037238  3.2381883503221651  5.3007491770873507
  6.9986255390046548  5.2072825254832527  6.7011237656310225
  8.3983506468055857  3.2381883503221616  5.3007491770873507
  5.5989004312037238  3.2381883503221651  8.1014983541746997
  8.3983506468055857  3.2381883503221616  8.1014983541746997
  6.9986255390046548  9.1454708758054259  3.9003745885436794
  5.5989004312037238  7.1763767006443411  5.3007491770873507
  6.9986255390046548  9.1454708758054259  6.7011237656310225
  5.5989004312037238 11.1145650509665135  5.3007491770873507
  8.3983506468055857  7.1763767006443375  5.3007491770873507
  8.3983506468055857 11.1145650509665099  5.3007491770873507
  5.5989004312037238  7.1763767006443411  8.1014983541746997
  5.5989004312037238 11.1145650509665135  8.1014983541746997
  8.3983506468055857  7.1763767006443375  8.1014983541746997
  8.3983506468055857 11.1145650509665099  8.1014983541746997
