Sn Pd                                   
   1.00000000000000     
     5.9331353039291308   -0.0000000000000000   -0.0000000000000006
    -0.0000000000000000    5.7099584482960086   -0.0000000000000000
    -0.0000000000000002    0.0000000000000000    7.6857010094241902
   Sn   Pd
     3    13
Direct
 -0.0000000000000000  0.0000000000000000  0.0000000000000000
 -0.0000000000000000  0.0000000000000000  0.5000000000000000
  0.5000000000000000  0.0000000000000000  0.0000000000000000
  0.2499547650358594  0.2485993733239454  0.2479817377550841
  0.2499547650358594  0.2485993733239454  0.7520182622449159
 -0.0000000000000000  0.5000000000000000  0.0000000000000000
  0.2499547650358594  0.7514006266760547  0.2479817377550841
 -0.0000000000000000  0.5000000000000000  0.5000000000000000
  0.2499547650358594  0.7514006266760547  0.7520182622449159
  0.7500452349641407  0.2485993733239454  0.2479817377550841
  0.5000000000000000  0.0000000000000000  0.5000000000000000
  0.7500452349641407  0.2485993733239454  0.7520182622449159
  0.5000000000000000  0.5000000000000000  0.0000000000000000
  0.7500452349641407  0.7514006266760547  0.2479817377550841
  0.5000000000000000  0.5000000000000000  0.5000000000000000
  0.7500452349641407  0.7514006266760547  0.7520182622449159
 
  0.00000000E+00  0.00000000E+00  0.00000000E+00
  0.00000000E+00  0.00000000E+00  0.00000000E+00
  0.00000000E+00  0.00000000E+00  0.00000000E+00
  0.00000000E+00  0.00000000E+00  0.00000000E+00
  0.00000000E+00  0.00000000E+00  0.00000000E+00
  0.00000000E+00  0.00000000E+00  0.00000000E+00
  0.00000000E+00  0.00000000E+00  0.00000000E+00
  0.00000000E+00  0.00000000E+00  0.00000000E+00
  0.00000000E+00  0.00000000E+00  0.00000000E+00
  0.00000000E+00  0.00000000E+00  0.00000000E+00
  0.00000000E+00  0.00000000E+00  0.00000000E+00
  0.00000000E+00  0.00000000E+00  0.00000000E+00
  0.00000000E+00  0.00000000E+00  0.00000000E+00
  0.00000000E+00  0.00000000E+00  0.00000000E+00
  0.00000000E+00  0.00000000E+00  0.00000000E+00
  0.00000000E+00  0.00000000E+00  0.00000000E+00
